p tw 176 39601 2 
1 3 
1 4 
1 5 
1 6 
1 7 
1 8 
1 9 
1 10 
1 11 
1 12 
1 13 
1 14 
1 15 
1 16 
1 17 
1 18 
1 19 
1 20 
1 21 
1 22 
1 23 
1 24 
1 25 
1 26 
1 27 
1 28 
1 29 
1 30 
1 31 
1 32 
1 33 
1 34 
1 35 
1 36 
1 37 
1 38 
1 39 
1 40 
1 41 
1 42 
1 43 
1 44 
1 45 
1 46 
2 3 
2 4 
2 5 
2 6 
2 7 
2 8 
2 9 
2 10 
2 11 
2 12 
2 13 
2 14 
2 15 
2 16 
2 17 
2 18 
2 32 
2 37 
2 47 
2 48 
2 49 
2 50 
2 51 
2 52 
2 53 
2 54 
2 55 
2 56 
2 57 
2 58 
2 59 
2 81 
2 90 
2 100 
2 109 
2 127 
2 133 
2 137 
2 145 
2 151 
2 157 
2 163 
2 168 
2 170 
3 4 
3 5 
3 6 
3 7 
3 8 
3 9 
3 10 
3 11 
3 12 
3 13 
3 14 
3 15 
3 16 
3 18 
3 20 
3 33 
3 35 
3 47 
3 49 
3 60 
3 61 
3 62 
3 63 
3 64 
3 65 
3 66 
3 67 
3 68 
3 69 
3 70 
3 71 
3 72 
3 83 
3 84 
3 85 
3 86 
3 87 
3 88 
3 89 
3 90 
3 91 
3 92 
3 93 
4 5 
4 6 
4 7 
4 8 
4 9 
4 10 
4 11 
4 12 
4 13 
4 14 
4 15 
4 16 
4 19 
4 24 
4 34 
4 38 
4 48 
4 52 
4 60 
4 63 
4 72 
4 73 
4 74 
4 75 
4 76 
4 77 
4 78 
4 79 
4 80 
4 81 
4 82 
4 85 
4 94 
4 103 
4 113 
4 123 
4 124 
4 125 
4 126 
4 127 
4 128 
4 129 
5 6 
5 7 
5 8 
5 9 
5 10 
5 11 
5 12 
5 13 
5 14 
5 15 
5 16 
5 17 
5 21 
5 36 
5 42 
5 50 
5 61 
5 65 
5 73 
5 79 
5 83 
5 88 
5 94 
5 95 
5 96 
5 97 
5 98 
5 99 
5 100 
5 101 
5 102 
5 107 
5 118 
5 125 
5 131 
5 144 
5 156 
5 157 
5 158 
5 159 
5 160 
6 7 
6 8 
6 9 
6 10 
6 11 
6 12 
6 13 
6 14 
6 15 
6 16 
6 22 
6 23 
6 34 
6 37 
6 50 
6 51 
6 60 
6 62 
6 83 
6 84 
6 103 
6 104 
6 105 
6 106 
6 107 
6 108 
6 109 
6 110 
6 111 
6 112 
6 113 
6 114 
6 115 
6 116 
6 117 
6 118 
6 119 
6 120 
6 121 
6 122 
7 8 
7 9 
7 10 
7 11 
7 12 
7 13 
7 14 
7 15 
7 16 
7 24 
7 25 
7 32 
7 33 
7 55 
7 64 
7 74 
7 80 
7 84 
7 89 
7 95 
7 98 
7 104 
7 106 
7 119 
7 123 
7 130 
7 131 
7 132 
7 133 
7 134 
7 135 
7 136 
7 138 
7 148 
7 153 
7 156 
7 161 
7 162 
7 163 
8 9 
8 10 
8 11 
8 12 
8 13 
8 14 
8 15 
8 16 
8 21 
8 29 
8 38 
8 39 
8 53 
8 56 
8 64 
8 65 
8 72 
8 75 
8 86 
8 99 
8 105 
8 107 
8 114 
8 117 
8 123 
8 137 
8 138 
8 139 
8 140 
8 141 
8 142 
8 145 
8 149 
8 161 
8 164 
8 165 
8 166 
8 167 
9 10 
9 11 
9 12 
9 13 
9 14 
9 15 
9 16 
9 22 
9 26 
9 40 
9 44 
9 53 
9 59 
9 66 
9 67 
9 76 
9 77 
9 87 
9 92 
9 95 
9 101 
9 106 
9 115 
9 122 
9 124 
9 128 
9 135 
9 141 
9 143 
9 144 
9 145 
9 146 
9 147 
9 160 
9 162 
9 166 
9 170 
10 11 
10 12 
10 13 
10 14 
10 15 
10 16 
10 27 
10 31 
10 35 
10 43 
10 47 
10 57 
10 70 
10 73 
10 77 
10 85 
10 96 
10 105 
10 111 
10 116 
10 119 
10 125 
10 130 
10 134 
10 140 
10 143 
10 146 
10 148 
10 149 
10 150 
10 151 
10 152 
10 155 
10 157 
10 166 
10 169 
11 12 
11 13 
11 14 
11 15 
11 16 
11 28 
11 29 
11 41 
11 46 
11 54 
11 58 
11 61 
11 67 
11 78 
11 81 
11 88 
11 93 
11 97 
11 104 
11 112 
11 116 
11 117 
11 124 
11 126 
11 136 
11 137 
11 141 
11 143 
11 153 
11 154 
11 155 
11 156 
11 169 
11 171 
11 176 
12 13 
12 14 
12 15 
12 16 
12 19 
12 30 
12 36 
12 43 
12 52 
12 58 
12 63 
12 68 
12 75 
12 87 
12 91 
12 102 
12 108 
12 109 
12 118 
12 121 
12 132 
12 135 
12 139 
12 147 
12 150 
12 152 
12 153 
12 154 
12 159 
12 162 
12 164 
12 167 
12 168 
12 169 
13 14 
13 15 
13 16 
13 30 
13 31 
13 40 
13 45 
13 49 
13 54 
13 69 
13 71 
13 74 
13 82 
13 93 
13 98 
13 101 
13 103 
13 110 
13 115 
13 120 
13 126 
13 132 
13 140 
13 142 
13 150 
13 151 
13 158 
13 160 
13 163 
13 165 
13 167 
13 171 
13 175 
14 15 
14 16 
14 27 
14 28 
14 45 
14 46 
14 51 
14 59 
14 69 
14 70 
14 79 
14 80 
14 86 
14 92 
14 100 
14 102 
14 108 
14 113 
14 114 
14 129 
14 130 
14 136 
14 144 
14 147 
14 155 
14 161 
14 165 
14 168 
14 172 
14 173 
14 174 
14 175 
15 16 
15 23 
15 26 
15 39 
15 44 
15 55 
15 56 
15 66 
15 68 
15 78 
15 82 
15 90 
15 91 
15 96 
15 97 
15 111 
15 112 
15 120 
15 127 
15 128 
15 131 
15 134 
15 138 
15 152 
15 158 
15 164 
15 172 
15 173 
15 174 
15 175 
15 176 
16 20 
16 25 
16 41 
16 42 
16 48 
16 57 
16 62 
16 71 
16 76 
16 89 
16 94 
16 99 
16 110 
16 121 
16 122 
16 129 
16 133 
16 139 
16 142 
16 146 
16 148 
16 149 
16 154 
16 159 
16 170 
16 171 
16 172 
16 173 
16 174 
16 176 
17 18 
17 19 
17 20 
17 21 
17 22 
17 23 
17 24 
17 25 
17 26 
17 27 
17 28 
17 29 
17 30 
17 31 
17 32 
17 42 
17 47 
17 48 
17 49 
17 50 
17 51 
17 52 
17 53 
17 54 
17 55 
17 56 
17 57 
17 58 
17 59 
17 65 
17 79 
17 88 
17 107 
17 118 
17 125 
17 131 
17 144 
17 156 
17 157 
17 158 
17 159 
17 160 
18 19 
18 20 
18 21 
18 22 
18 23 
18 24 
18 25 
18 26 
18 27 
18 28 
18 29 
18 30 
18 31 
18 33 
18 37 
18 47 
18 60 
18 61 
18 62 
18 63 
18 64 
18 65 
18 66 
18 67 
18 68 
18 69 
18 70 
18 71 
18 81 
18 90 
18 100 
18 109 
18 127 
18 133 
18 137 
18 145 
18 151 
18 157 
18 163 
18 168 
18 170 
19 20 
19 21 
19 22 
19 23 
19 24 
19 25 
19 26 
19 27 
19 28 
19 29 
19 30 
19 31 
19 34 
19 36 
19 48 
19 52 
19 60 
19 68 
19 72 
19 73 
19 74 
19 75 
19 76 
19 77 
19 78 
19 79 
19 80 
19 81 
19 82 
19 87 
19 108 
19 118 
19 132 
19 139 
19 150 
19 154 
19 162 
19 164 
19 168 
19 169 
20 21 
20 22 
20 23 
20 24 
20 25 
20 26 
20 27 
20 28 
20 29 
20 30 
20 31 
20 35 
20 41 
20 49 
20 57 
20 71 
20 72 
20 76 
20 83 
20 84 
20 85 
20 86 
20 87 
20 88 
20 89 
20 90 
20 91 
20 92 
20 93 
20 99 
20 110 
20 122 
20 129 
20 133 
20 139 
20 148 
20 159 
20 172 
20 176 
21 22 
21 23 
21 24 
21 25 
21 26 
21 27 
21 28 
21 29 
21 30 
21 31 
21 36 
21 39 
21 50 
21 53 
21 61 
21 65 
21 73 
21 75 
21 83 
21 86 
21 94 
21 95 
21 96 
21 97 
21 98 
21 99 
21 100 
21 101 
21 102 
21 105 
21 114 
21 123 
21 137 
21 138 
21 139 
21 140 
21 141 
21 142 
22 23 
22 24 
22 25 
22 26 
22 27 
22 28 
22 29 
22 30 
22 31 
22 34 
22 44 
22 51 
22 59 
22 62 
22 67 
22 77 
22 83 
22 92 
22 101 
22 103 
22 104 
22 105 
22 106 
22 107 
22 108 
22 109 
22 110 
22 111 
22 112 
22 122 
22 128 
22 135 
22 141 
22 160 
22 162 
22 166 
22 170 
23 24 
23 25 
23 26 
23 27 
23 28 
23 29 
23 30 
23 31 
23 37 
23 39 
23 50 
23 55 
23 60 
23 66 
23 82 
23 84 
23 90 
23 97 
23 112 
23 113 
23 114 
23 115 
23 116 
23 117 
23 118 
23 119 
23 120 
23 121 
23 122 
23 128 
23 134 
23 152 
23 158 
23 164 
23 172 
23 174 
24 25 
24 26 
24 27 
24 28 
24 29 
24 30 
24 31 
24 33 
24 38 
24 52 
24 55 
24 63 
24 80 
24 85 
24 89 
24 94 
24 98 
24 103 
24 106 
24 113 
24 119 
24 123 
24 124 
24 125 
24 126 
24 127 
24 128 
24 129 
24 138 
24 148 
24 153 
24 156 
24 161 
24 162 
24 163 
25 26 
25 27 
25 28 
25 29 
25 30 
25 31 
25 32 
25 42 
25 48 
25 62 
25 64 
25 74 
25 84 
25 89 
25 94 
25 95 
25 104 
25 121 
25 123 
25 130 
25 131 
25 132 
25 133 
25 134 
25 135 
25 136 
25 142 
25 146 
25 149 
25 154 
25 170 
25 171 
25 173 
25 174 
26 27 
26 28 
26 29 
26 30 
26 31 
26 40 
26 44 
26 53 
26 56 
26 66 
26 68 
26 76 
26 78 
26 87 
26 91 
26 95 
26 96 
26 106 
26 111 
26 115 
26 120 
26 124 
26 127 
26 131 
26 138 
26 143 
26 144 
26 145 
26 146 
26 147 
26 173 
26 175 
26 176 
27 28 
27 29 
27 30 
27 31 
27 35 
27 45 
27 47 
27 59 
27 69 
27 77 
27 79 
27 86 
27 96 
27 100 
27 105 
27 108 
27 113 
27 116 
27 125 
27 130 
27 136 
27 143 
27 147 
27 148 
27 149 
27 150 
27 151 
27 152 
27 155 
27 161 
27 172 
27 173 
28 29 
28 30 
28 31 
28 41 
28 46 
28 51 
28 54 
28 67 
28 70 
28 78 
28 80 
28 88 
28 92 
28 97 
28 102 
28 104 
28 114 
28 117 
28 126 
28 129 
28 130 
28 137 
28 143 
28 144 
28 153 
28 154 
28 155 
28 165 
28 168 
28 174 
28 175 
29 30 
29 31 
29 38 
29 46 
29 56 
29 58 
29 61 
29 64 
29 72 
29 81 
29 93 
29 99 
29 107 
29 112 
29 116 
29 117 
29 124 
29 136 
29 141 
29 145 
29 149 
29 156 
29 161 
29 164 
29 165 
29 166 
29 167 
29 169 
29 171 
29 176 
30 31 
30 40 
30 43 
30 49 
30 58 
30 63 
30 69 
30 74 
30 75 
30 91 
30 101 
30 102 
30 109 
30 110 
30 120 
30 121 
30 126 
30 135 
30 140 
30 147 
30 150 
30 152 
30 153 
30 158 
30 159 
30 163 
30 165 
30 167 
30 171 
31 43 
31 45 
31 54 
31 57 
31 70 
31 71 
31 73 
31 82 
31 85 
31 93 
31 98 
31 103 
31 111 
31 115 
31 119 
31 132 
31 134 
31 140 
31 142 
31 146 
31 151 
31 155 
31 157 
31 160 
31 166 
31 167 
31 169 
31 175 
32 33 
32 34 
32 35 
32 36 
32 37 
32 38 
32 39 
32 40 
32 41 
32 42 
32 43 
32 44 
32 45 
32 46 
32 47 
32 48 
32 49 
32 50 
32 51 
32 52 
32 53 
32 54 
32 55 
32 56 
32 57 
32 58 
32 59 
32 64 
32 74 
32 84 
32 95 
32 104 
32 123 
32 130 
32 131 
32 132 
32 133 
32 134 
32 135 
32 136 
33 34 
33 35 
33 36 
33 37 
33 38 
33 39 
33 40 
33 41 
33 42 
33 43 
33 44 
33 45 
33 46 
33 47 
33 55 
33 60 
33 61 
33 62 
33 63 
33 64 
33 65 
33 66 
33 67 
33 68 
33 69 
33 70 
33 71 
33 80 
33 89 
33 98 
33 106 
33 119 
33 138 
33 148 
33 153 
33 156 
33 161 
33 162 
33 163 
34 35 
34 36 
34 37 
34 38 
34 39 
34 40 
34 41 
34 42 
34 43 
34 44 
34 45 
34 46 
34 48 
34 51 
34 60 
34 62 
34 72 
34 73 
34 74 
34 75 
34 76 
34 77 
34 78 
34 79 
34 80 
34 81 
34 82 
34 83 
34 103 
34 104 
34 105 
34 106 
34 107 
34 108 
34 109 
34 110 
34 111 
34 112 
35 36 
35 37 
35 38 
35 39 
35 40 
35 41 
35 42 
35 43 
35 44 
35 45 
35 46 
35 47 
35 49 
35 72 
35 77 
35 83 
35 84 
35 85 
35 86 
35 87 
35 88 
35 89 
35 90 
35 91 
35 92 
35 93 
35 96 
35 105 
35 116 
35 125 
35 130 
35 143 
35 148 
35 149 
35 150 
35 151 
35 152 
36 37 
36 38 
36 39 
36 40 
36 41 
36 42 
36 43 
36 44 
36 45 
36 46 
36 50 
36 52 
36 61 
36 68 
36 73 
36 83 
36 87 
36 94 
36 95 
36 96 
36 97 
36 98 
36 99 
36 100 
36 101 
36 102 
36 108 
36 118 
36 132 
36 139 
36 150 
36 154 
36 162 
36 164 
36 168 
36 169 
37 38 
37 39 
37 40 
37 41 
37 42 
37 43 
37 44 
37 45 
37 46 
37 50 
37 60 
37 81 
37 84 
37 90 
37 100 
37 109 
37 113 
37 114 
37 115 
37 116 
37 117 
37 118 
37 119 
37 120 
37 121 
37 122 
37 127 
37 133 
37 137 
37 145 
37 151 
37 157 
37 163 
37 168 
37 170 
38 39 
38 40 
38 41 
38 42 
38 43 
38 44 
38 45 
38 46 
38 52 
38 56 
38 63 
38 64 
38 72 
38 85 
38 94 
38 99 
38 103 
38 107 
38 113 
38 117 
38 123 
38 124 
38 125 
38 126 
38 127 
38 128 
38 129 
38 145 
38 149 
38 161 
38 164 
38 165 
38 166 
38 167 
39 40 
39 41 
39 42 
39 43 
39 44 
39 45 
39 46 
39 53 
39 55 
39 65 
39 66 
39 75 
39 82 
39 86 
39 90 
39 97 
39 105 
39 112 
39 114 
39 123 
39 128 
39 134 
39 137 
39 138 
39 139 
39 140 
39 141 
39 142 
39 152 
39 158 
39 164 
39 172 
39 174 
40 41 
40 42 
40 43 
40 44 
40 45 
40 46 
40 49 
40 53 
40 66 
40 69 
40 74 
40 76 
40 87 
40 95 
40 101 
40 106 
40 110 
40 115 
40 120 
40 124 
40 126 
40 140 
40 143 
40 144 
40 145 
40 146 
40 147 
40 150 
40 158 
40 163 
40 165 
40 171 
41 42 
41 43 
41 44 
41 45 
41 46 
41 54 
41 57 
41 67 
41 71 
41 76 
41 78 
41 88 
41 97 
41 99 
41 104 
41 110 
41 117 
41 122 
41 126 
41 129 
41 133 
41 137 
41 139 
41 143 
41 148 
41 153 
41 154 
41 155 
41 159 
41 172 
41 176 
42 43 
42 44 
42 45 
42 46 
42 48 
42 62 
42 65 
42 79 
42 88 
42 89 
42 94 
42 107 
42 118 
42 121 
42 125 
42 131 
42 142 
42 144 
42 146 
42 149 
42 154 
42 156 
42 157 
42 158 
42 159 
42 160 
42 170 
42 171 
42 173 
42 174 
43 44 
43 45 
43 46 
43 57 
43 58 
43 63 
43 70 
43 73 
43 75 
43 85 
43 91 
43 102 
43 109 
43 111 
43 119 
43 121 
43 134 
43 135 
43 140 
43 146 
43 147 
43 152 
43 153 
43 155 
43 157 
43 159 
43 166 
43 167 
43 169 
44 45 
44 46 
44 56 
44 59 
44 67 
44 68 
44 77 
44 78 
44 91 
44 92 
44 96 
44 101 
44 111 
44 120 
44 122 
44 127 
44 128 
44 131 
44 135 
44 138 
44 141 
44 160 
44 162 
44 166 
44 170 
44 173 
44 175 
44 176 
45 46 
45 54 
45 59 
45 69 
45 71 
45 79 
45 82 
45 86 
45 93 
45 98 
45 100 
45 103 
45 108 
45 113 
45 115 
45 132 
45 136 
45 142 
45 147 
45 151 
45 155 
45 160 
45 161 
45 167 
45 172 
45 173 
45 175 
46 51 
46 58 
46 61 
46 70 
46 80 
46 81 
46 92 
46 93 
46 102 
46 112 
46 114 
46 116 
46 124 
46 129 
46 130 
46 136 
46 141 
46 144 
46 156 
46 165 
46 168 
46 169 
46 171 
46 174 
46 175 
46 176 
47 48 
47 49 
47 50 
47 51 
47 52 
47 53 
47 54 
47 55 
47 56 
47 57 
47 58 
47 59 
47 60 
47 61 
47 62 
47 63 
47 64 
47 65 
47 66 
47 67 
47 68 
47 69 
47 70 
47 71 
47 77 
47 96 
47 105 
47 116 
47 125 
47 130 
47 143 
47 148 
47 149 
47 150 
47 151 
47 152 
48 49 
48 50 
48 51 
48 52 
48 53 
48 54 
48 55 
48 56 
48 57 
48 58 
48 59 
48 60 
48 62 
48 72 
48 73 
48 74 
48 75 
48 76 
48 77 
48 78 
48 79 
48 80 
48 81 
48 82 
48 89 
48 94 
48 121 
48 142 
48 146 
48 149 
48 154 
48 170 
48 171 
48 173 
48 174 
49 50 
49 51 
49 52 
49 53 
49 54 
49 55 
49 56 
49 57 
49 58 
49 59 
49 69 
49 72 
49 74 
49 83 
49 84 
49 85 
49 86 
49 87 
49 88 
49 89 
49 90 
49 91 
49 92 
49 93 
49 101 
49 110 
49 120 
49 126 
49 140 
49 150 
49 158 
49 163 
49 165 
49 171 
50 51 
50 52 
50 53 
50 54 
50 55 
50 56 
50 57 
50 58 
50 59 
50 60 
50 61 
50 73 
50 83 
50 84 
50 94 
50 95 
50 96 
50 97 
50 98 
50 99 
50 100 
50 101 
50 102 
50 113 
50 114 
50 115 
50 116 
50 117 
50 118 
50 119 
50 120 
50 121 
50 122 
51 52 
51 53 
51 54 
51 55 
51 56 
51 57 
51 58 
51 59 
51 62 
51 70 
51 80 
51 83 
51 92 
51 102 
51 103 
51 104 
51 105 
51 106 
51 107 
51 108 
51 109 
51 110 
51 111 
51 112 
51 114 
51 129 
51 130 
51 144 
51 165 
51 168 
51 174 
51 175 
52 53 
52 54 
52 55 
52 56 
52 57 
52 58 
52 59 
52 63 
52 68 
52 85 
52 87 
52 94 
52 103 
52 108 
52 113 
52 118 
52 123 
52 124 
52 125 
52 126 
52 127 
52 128 
52 129 
52 132 
52 139 
52 150 
52 154 
52 162 
52 164 
52 168 
52 169 
53 54 
53 55 
53 56 
53 57 
53 58 
53 59 
53 65 
53 66 
53 75 
53 76 
53 86 
53 87 
53 95 
53 105 
53 106 
53 114 
53 115 
53 123 
53 124 
53 137 
53 138 
53 139 
53 140 
53 141 
53 142 
53 143 
53 144 
53 145 
53 146 
53 147 
54 55 
54 56 
54 57 
54 58 
54 59 
54 67 
54 71 
54 78 
54 82 
54 88 
54 93 
54 97 
54 98 
54 103 
54 104 
54 115 
54 117 
54 126 
54 132 
54 137 
54 142 
54 143 
54 151 
54 153 
54 154 
54 155 
54 160 
54 167 
54 175 
55 56 
55 57 
55 58 
55 59 
55 66 
55 80 
55 82 
55 89 
55 90 
55 97 
55 98 
55 106 
55 112 
55 119 
55 128 
55 134 
55 138 
55 148 
55 152 
55 153 
55 156 
55 158 
55 161 
55 162 
55 163 
55 164 
55 172 
55 174 
56 57 
56 58 
56 59 
56 64 
56 68 
56 72 
56 78 
56 91 
56 96 
56 99 
56 107 
56 111 
56 117 
56 120 
56 127 
56 131 
56 138 
56 145 
56 149 
56 161 
56 164 
56 165 
56 166 
56 167 
56 173 
56 175 
56 176 
57 58 
57 59 
57 70 
57 71 
57 73 
57 76 
57 85 
57 99 
57 110 
57 111 
57 119 
57 122 
57 129 
57 133 
57 134 
57 139 
57 140 
57 146 
57 148 
57 155 
57 157 
57 159 
57 166 
57 169 
57 172 
57 176 
58 59 
58 61 
58 63 
58 75 
58 81 
58 91 
58 93 
58 102 
58 109 
58 112 
58 116 
58 121 
58 124 
58 135 
58 136 
58 141 
58 147 
58 152 
58 153 
58 156 
58 159 
58 167 
58 169 
58 171 
58 176 
59 67 
59 69 
59 77 
59 79 
59 86 
59 92 
59 100 
59 101 
59 108 
59 113 
59 122 
59 128 
59 135 
59 136 
59 141 
59 147 
59 155 
59 160 
59 161 
59 162 
59 166 
59 170 
59 172 
59 173 
60 61 
60 62 
60 63 
60 64 
60 65 
60 66 
60 67 
60 68 
60 69 
60 70 
60 71 
60 72 
60 73 
60 74 
60 75 
60 76 
60 77 
60 78 
60 79 
60 80 
60 81 
60 82 
60 84 
60 113 
60 114 
60 115 
60 116 
60 117 
60 118 
60 119 
60 120 
60 121 
60 122 
61 62 
61 63 
61 64 
61 65 
61 66 
61 67 
61 68 
61 69 
61 70 
61 71 
61 73 
61 81 
61 83 
61 93 
61 94 
61 95 
61 96 
61 97 
61 98 
61 99 
61 100 
61 101 
61 102 
61 112 
61 116 
61 124 
61 136 
61 141 
61 156 
61 169 
61 171 
61 176 
62 63 
62 64 
62 65 
62 66 
62 67 
62 68 
62 69 
62 70 
62 71 
62 83 
62 89 
62 94 
62 103 
62 104 
62 105 
62 106 
62 107 
62 108 
62 109 
62 110 
62 111 
62 112 
62 121 
62 142 
62 146 
62 149 
62 154 
62 170 
62 171 
62 173 
62 174 
63 64 
63 65 
63 66 
63 67 
63 68 
63 69 
63 70 
63 71 
63 75 
63 85 
63 91 
63 94 
63 102 
63 103 
63 109 
63 113 
63 121 
63 123 
63 124 
63 125 
63 126 
63 127 
63 128 
63 129 
63 135 
63 147 
63 152 
63 153 
63 159 
63 167 
64 65 
64 66 
64 67 
64 68 
64 69 
64 70 
64 71 
64 72 
64 74 
64 84 
64 95 
64 99 
64 104 
64 107 
64 117 
64 123 
64 130 
64 131 
64 132 
64 133 
64 134 
64 135 
64 136 
64 145 
64 149 
64 161 
64 164 
64 165 
64 166 
64 167 
65 66 
65 67 
65 68 
65 69 
65 70 
65 71 
65 75 
65 79 
65 86 
65 88 
65 105 
65 107 
65 114 
65 118 
65 123 
65 125 
65 131 
65 137 
65 138 
65 139 
65 140 
65 141 
65 142 
65 144 
65 156 
65 157 
65 158 
65 159 
65 160 
66 67 
66 68 
66 69 
66 70 
66 71 
66 76 
66 82 
66 87 
66 90 
66 95 
66 97 
66 106 
66 112 
66 115 
66 124 
66 128 
66 134 
66 143 
66 144 
66 145 
66 146 
66 147 
66 152 
66 158 
66 164 
66 172 
66 174 
67 68 
67 69 
67 70 
67 71 
67 77 
67 78 
67 88 
67 92 
67 97 
67 101 
67 104 
67 117 
67 122 
67 126 
67 128 
67 135 
67 137 
67 141 
67 143 
67 153 
67 154 
67 155 
67 160 
67 162 
67 166 
67 170 
68 69 
68 70 
68 71 
68 78 
68 87 
68 91 
68 96 
68 108 
68 111 
68 118 
68 120 
68 127 
68 131 
68 132 
68 138 
68 139 
68 150 
68 154 
68 162 
68 164 
68 168 
68 169 
68 173 
68 175 
68 176 
69 70 
69 71 
69 74 
69 79 
69 86 
69 100 
69 101 
69 108 
69 110 
69 113 
69 120 
69 126 
69 136 
69 140 
69 147 
69 150 
69 155 
69 158 
69 161 
69 163 
69 165 
69 171 
69 172 
69 173 
70 71 
70 73 
70 80 
70 85 
70 92 
70 102 
70 111 
70 114 
70 119 
70 129 
70 130 
70 134 
70 140 
70 144 
70 146 
70 155 
70 157 
70 165 
70 166 
70 168 
70 169 
70 174 
70 175 
71 76 
71 82 
71 93 
71 98 
71 99 
71 103 
71 110 
71 115 
71 122 
71 129 
71 132 
71 133 
71 139 
71 142 
71 148 
71 151 
71 159 
71 160 
71 167 
71 172 
71 175 
71 176 
72 73 
72 74 
72 75 
72 76 
72 77 
72 78 
72 79 
72 80 
72 81 
72 82 
72 83 
72 84 
72 85 
72 86 
72 87 
72 88 
72 89 
72 90 
72 91 
72 92 
72 93 
72 99 
72 107 
72 117 
72 145 
72 149 
72 161 
72 164 
72 165 
72 166 
72 167 
73 74 
73 75 
73 76 
73 77 
73 78 
73 79 
73 80 
73 81 
73 82 
73 83 
73 85 
73 94 
73 95 
73 96 
73 97 
73 98 
73 99 
73 100 
73 101 
73 102 
73 111 
73 119 
73 134 
73 140 
73 146 
73 155 
73 157 
73 166 
73 169 
74 75 
74 76 
74 77 
74 78 
74 79 
74 80 
74 81 
74 82 
74 84 
74 95 
74 101 
74 104 
74 110 
74 120 
74 123 
74 126 
74 130 
74 131 
74 132 
74 133 
74 134 
74 135 
74 136 
74 140 
74 150 
74 158 
74 163 
74 165 
74 171 
75 76 
75 77 
75 78 
75 79 
75 80 
75 81 
75 82 
75 86 
75 91 
75 102 
75 105 
75 109 
75 114 
75 121 
75 123 
75 135 
75 137 
75 138 
75 139 
75 140 
75 141 
75 142 
75 147 
75 152 
75 153 
75 159 
75 167 
76 77 
76 78 
76 79 
76 80 
76 81 
76 82 
76 87 
76 95 
76 99 
76 106 
76 110 
76 115 
76 122 
76 124 
76 129 
76 133 
76 139 
76 143 
76 144 
76 145 
76 146 
76 147 
76 148 
76 159 
76 172 
76 176 
77 78 
77 79 
77 80 
77 81 
77 82 
77 92 
77 96 
77 101 
77 105 
77 116 
77 122 
77 125 
77 128 
77 130 
77 135 
77 141 
77 143 
77 148 
77 149 
77 150 
77 151 
77 152 
77 160 
77 162 
77 166 
77 170 
78 79 
78 80 
78 81 
78 82 
78 88 
78 91 
78 96 
78 97 
78 104 
78 111 
78 117 
78 120 
78 126 
78 127 
78 131 
78 137 
78 138 
78 143 
78 153 
78 154 
78 155 
78 173 
78 175 
78 176 
79 80 
79 81 
79 82 
79 86 
79 88 
79 100 
79 107 
79 108 
79 113 
79 118 
79 125 
79 131 
79 136 
79 144 
79 147 
79 155 
79 156 
79 157 
79 158 
79 159 
79 160 
79 161 
79 172 
79 173 
80 81 
80 82 
80 89 
80 92 
80 98 
80 102 
80 106 
80 114 
80 119 
80 129 
80 130 
80 138 
80 144 
80 148 
80 153 
80 156 
80 161 
80 162 
80 163 
80 165 
80 168 
80 174 
80 175 
81 82 
81 90 
81 93 
81 100 
81 109 
81 112 
81 116 
81 124 
81 127 
81 133 
81 136 
81 137 
81 141 
81 145 
81 151 
81 156 
81 157 
81 163 
81 168 
81 169 
81 170 
81 171 
81 176 
82 90 
82 93 
82 97 
82 98 
82 103 
82 112 
82 115 
82 128 
82 132 
82 134 
82 142 
82 151 
82 152 
82 158 
82 160 
82 164 
82 167 
82 172 
82 174 
82 175 
83 84 
83 85 
83 86 
83 87 
83 88 
83 89 
83 90 
83 91 
83 92 
83 93 
83 94 
83 95 
83 96 
83 97 
83 98 
83 99 
83 100 
83 101 
83 102 
83 103 
83 104 
83 105 
83 106 
83 107 
83 108 
83 109 
83 110 
83 111 
83 112 
84 85 
84 86 
84 87 
84 88 
84 89 
84 90 
84 91 
84 92 
84 93 
84 95 
84 104 
84 113 
84 114 
84 115 
84 116 
84 117 
84 118 
84 119 
84 120 
84 121 
84 122 
84 123 
84 130 
84 131 
84 132 
84 133 
84 134 
84 135 
84 136 
85 86 
85 87 
85 88 
85 89 
85 90 
85 91 
85 92 
85 93 
85 94 
85 103 
85 111 
85 113 
85 119 
85 123 
85 124 
85 125 
85 126 
85 127 
85 128 
85 129 
85 134 
85 140 
85 146 
85 155 
85 157 
85 166 
85 169 
86 87 
86 88 
86 89 
86 90 
86 91 
86 92 
86 93 
86 100 
86 105 
86 108 
86 113 
86 114 
86 123 
86 136 
86 137 
86 138 
86 139 
86 140 
86 141 
86 142 
86 147 
86 155 
86 161 
86 172 
86 173 
87 88 
87 89 
87 90 
87 91 
87 92 
87 93 
87 95 
87 106 
87 108 
87 115 
87 118 
87 124 
87 132 
87 139 
87 143 
87 144 
87 145 
87 146 
87 147 
87 150 
87 154 
87 162 
87 164 
87 168 
87 169 
88 89 
88 90 
88 91 
88 92 
88 93 
88 97 
88 104 
88 107 
88 117 
88 118 
88 125 
88 126 
88 131 
88 137 
88 143 
88 144 
88 153 
88 154 
88 155 
88 156 
88 157 
88 158 
88 159 
88 160 
89 90 
89 91 
89 92 
89 93 
89 94 
89 98 
89 106 
89 119 
89 121 
89 138 
89 142 
89 146 
89 148 
89 149 
89 153 
89 154 
89 156 
89 161 
89 162 
89 163 
89 170 
89 171 
89 173 
89 174 
90 91 
90 92 
90 93 
90 97 
90 100 
90 109 
90 112 
90 127 
90 128 
90 133 
90 134 
90 137 
90 145 
90 151 
90 152 
90 157 
90 158 
90 163 
90 164 
90 168 
90 170 
90 172 
90 174 
91 92 
91 93 
91 96 
91 102 
91 109 
91 111 
91 120 
91 121 
91 127 
91 131 
91 135 
91 138 
91 147 
91 152 
91 153 
91 159 
91 167 
91 173 
91 175 
91 176 
92 93 
92 101 
92 102 
92 114 
92 122 
92 128 
92 129 
92 130 
92 135 
92 141 
92 144 
92 160 
92 162 
92 165 
92 166 
92 168 
92 170 
92 174 
92 175 
93 98 
93 103 
93 112 
93 115 
93 116 
93 124 
93 132 
93 136 
93 141 
93 142 
93 151 
93 156 
93 160 
93 167 
93 169 
93 171 
93 175 
93 176 
94 95 
94 96 
94 97 
94 98 
94 99 
94 100 
94 101 
94 102 
94 103 
94 113 
94 121 
94 123 
94 124 
94 125 
94 126 
94 127 
94 128 
94 129 
94 142 
94 146 
94 149 
94 154 
94 170 
94 171 
94 173 
94 174 
95 96 
95 97 
95 98 
95 99 
95 100 
95 101 
95 102 
95 104 
95 106 
95 115 
95 123 
95 124 
95 130 
95 131 
95 132 
95 133 
95 134 
95 135 
95 136 
95 143 
95 144 
95 145 
95 146 
95 147 
96 97 
96 98 
96 99 
96 100 
96 101 
96 102 
96 105 
96 111 
96 116 
96 120 
96 125 
96 127 
96 130 
96 131 
96 138 
96 143 
96 148 
96 149 
96 150 
96 151 
96 152 
96 173 
96 175 
96 176 
97 98 
97 99 
97 100 
97 101 
97 102 
97 104 
97 112 
97 117 
97 126 
97 128 
97 134 
97 137 
97 143 
97 152 
97 153 
97 154 
97 155 
97 158 
97 164 
97 172 
97 174 
98 99 
98 100 
98 101 
98 102 
98 103 
98 106 
98 115 
98 119 
98 132 
98 138 
98 142 
98 148 
98 151 
98 153 
98 156 
98 160 
98 161 
98 162 
98 163 
98 167 
98 175 
99 100 
99 101 
99 102 
99 107 
99 110 
99 117 
99 122 
99 129 
99 133 
99 139 
99 145 
99 148 
99 149 
99 159 
99 161 
99 164 
99 165 
99 166 
99 167 
99 172 
99 176 
100 101 
100 102 
100 108 
100 109 
100 113 
100 127 
100 133 
100 136 
100 137 
100 145 
100 147 
100 151 
100 155 
100 157 
100 161 
100 163 
100 168 
100 170 
100 172 
100 173 
101 102 
101 110 
101 120 
101 122 
101 126 
101 128 
101 135 
101 140 
101 141 
101 150 
101 158 
101 160 
101 162 
101 163 
101 165 
101 166 
101 170 
101 171 
102 109 
102 114 
102 121 
102 129 
102 130 
102 135 
102 144 
102 147 
102 152 
102 153 
102 159 
102 165 
102 167 
102 168 
102 174 
102 175 
103 104 
103 105 
103 106 
103 107 
103 108 
103 109 
103 110 
103 111 
103 112 
103 113 
103 115 
103 123 
103 124 
103 125 
103 126 
103 127 
103 128 
103 129 
103 132 
103 142 
103 151 
103 160 
103 167 
103 175 
104 105 
104 106 
104 107 
104 108 
104 109 
104 110 
104 111 
104 112 
104 117 
104 123 
104 126 
104 130 
104 131 
104 132 
104 133 
104 134 
104 135 
104 136 
104 137 
104 143 
104 153 
104 154 
104 155 
105 106 
105 107 
105 108 
105 109 
105 110 
105 111 
105 112 
105 114 
105 116 
105 123 
105 125 
105 130 
105 137 
105 138 
105 139 
105 140 
105 141 
105 142 
105 143 
105 148 
105 149 
105 150 
105 151 
105 152 
106 107 
106 108 
106 109 
106 110 
106 111 
106 112 
106 115 
106 119 
106 124 
106 138 
106 143 
106 144 
106 145 
106 146 
106 147 
106 148 
106 153 
106 156 
106 161 
106 162 
106 163 
107 108 
107 109 
107 110 
107 111 
107 112 
107 117 
107 118 
107 125 
107 131 
107 144 
107 145 
107 149 
107 156 
107 157 
107 158 
107 159 
107 160 
107 161 
107 164 
107 165 
107 166 
107 167 
108 109 
108 110 
108 111 
108 112 
108 113 
108 118 
108 132 
108 136 
108 139 
108 147 
108 150 
108 154 
108 155 
108 161 
108 162 
108 164 
108 168 
108 169 
108 172 
108 173 
109 110 
109 111 
109 112 
109 121 
109 127 
109 133 
109 135 
109 137 
109 145 
109 147 
109 151 
109 152 
109 153 
109 157 
109 159 
109 163 
109 167 
109 168 
109 170 
110 111 
110 112 
110 120 
110 122 
110 126 
110 129 
110 133 
110 139 
110 140 
110 148 
110 150 
110 158 
110 159 
110 163 
110 165 
110 171 
110 172 
110 176 
111 112 
111 119 
111 120 
111 127 
111 131 
111 134 
111 138 
111 140 
111 146 
111 155 
111 157 
111 166 
111 169 
111 173 
111 175 
111 176 
112 116 
112 124 
112 128 
112 134 
112 136 
112 141 
112 152 
112 156 
112 158 
112 164 
112 169 
112 171 
112 172 
112 174 
112 176 
113 114 
113 115 
113 116 
113 117 
113 118 
113 119 
113 120 
113 121 
113 122 
113 123 
113 124 
113 125 
113 126 
113 127 
113 128 
113 129 
113 136 
113 147 
113 155 
113 161 
113 172 
113 173 
114 115 
114 116 
114 117 
114 118 
114 119 
114 120 
114 121 
114 122 
114 123 
114 129 
114 130 
114 137 
114 138 
114 139 
114 140 
114 141 
114 142 
114 144 
114 165 
114 168 
114 174 
114 175 
115 116 
115 117 
115 118 
115 119 
115 120 
115 121 
115 122 
115 124 
115 132 
115 142 
115 143 
115 144 
115 145 
115 146 
115 147 
115 151 
115 160 
115 167 
115 175 
116 117 
116 118 
116 119 
116 120 
116 121 
116 122 
116 124 
116 125 
116 130 
116 136 
116 141 
116 143 
116 148 
116 149 
116 150 
116 151 
116 152 
116 156 
116 169 
116 171 
116 176 
117 118 
117 119 
117 120 
117 121 
117 122 
117 126 
117 137 
117 143 
117 145 
117 149 
117 153 
117 154 
117 155 
117 161 
117 164 
117 165 
117 166 
117 167 
118 119 
118 120 
118 121 
118 122 
118 125 
118 131 
118 132 
118 139 
118 144 
118 150 
118 154 
118 156 
118 157 
118 158 
118 159 
118 160 
118 162 
118 164 
118 168 
118 169 
119 120 
119 121 
119 122 
119 134 
119 138 
119 140 
119 146 
119 148 
119 153 
119 155 
119 156 
119 157 
119 161 
119 162 
119 163 
119 166 
119 169 
120 121 
120 122 
120 126 
120 127 
120 131 
120 138 
120 140 
120 150 
120 158 
120 163 
120 165 
120 171 
120 173 
120 175 
120 176 
121 122 
121 135 
121 142 
121 146 
121 147 
121 149 
121 152 
121 153 
121 154 
121 159 
121 167 
121 170 
121 171 
121 173 
121 174 
122 128 
122 129 
122 133 
122 135 
122 139 
122 141 
122 148 
122 159 
122 160 
122 162 
122 166 
122 170 
122 172 
122 176 
123 124 
123 125 
123 126 
123 127 
123 128 
123 129 
123 130 
123 131 
123 132 
123 133 
123 134 
123 135 
123 136 
123 137 
123 138 
123 139 
123 140 
123 141 
123 142 
124 125 
124 126 
124 127 
124 128 
124 129 
124 136 
124 141 
124 143 
124 144 
124 145 
124 146 
124 147 
124 156 
124 169 
124 171 
124 176 
125 126 
125 127 
125 128 
125 129 
125 130 
125 131 
125 143 
125 144 
125 148 
125 149 
125 150 
125 151 
125 152 
125 156 
125 157 
125 158 
125 159 
125 160 
126 127 
126 128 
126 129 
126 137 
126 140 
126 143 
126 150 
126 153 
126 154 
126 155 
126 158 
126 163 
126 165 
126 171 
127 128 
127 129 
127 131 
127 133 
127 137 
127 138 
127 145 
127 151 
127 157 
127 163 
127 168 
127 170 
127 173 
127 175 
127 176 
128 129 
128 134 
128 135 
128 141 
128 152 
128 158 
128 160 
128 162 
128 164 
128 166 
128 170 
128 172 
128 174 
129 130 
129 133 
129 139 
129 144 
129 148 
129 159 
129 165 
129 168 
129 172 
129 174 
129 175 
129 176 
130 131 
130 132 
130 133 
130 134 
130 135 
130 136 
130 143 
130 144 
130 148 
130 149 
130 150 
130 151 
130 152 
130 165 
130 168 
130 174 
130 175 
131 132 
131 133 
131 134 
131 135 
131 136 
131 138 
131 144 
131 156 
131 157 
131 158 
131 159 
131 160 
131 173 
131 175 
131 176 
132 133 
132 134 
132 135 
132 136 
132 139 
132 142 
132 150 
132 151 
132 154 
132 160 
132 162 
132 164 
132 167 
132 168 
132 169 
132 175 
133 134 
133 135 
133 136 
133 137 
133 139 
133 145 
133 148 
133 151 
133 157 
133 159 
133 163 
133 168 
133 170 
133 172 
133 176 
134 135 
134 136 
134 140 
134 146 
134 152 
134 155 
134 157 
134 158 
134 164 
134 166 
134 169 
134 172 
134 174 
135 136 
135 141 
135 147 
135 152 
135 153 
135 159 
135 160 
135 162 
135 166 
135 167 
135 170 
136 141 
136 147 
136 155 
136 156 
136 161 
136 169 
136 171 
136 172 
136 173 
136 176 
137 138 
137 139 
137 140 
137 141 
137 142 
137 143 
137 145 
137 151 
137 153 
137 154 
137 155 
137 157 
137 163 
137 168 
137 170 
138 139 
138 140 
138 141 
138 142 
138 148 
138 153 
138 156 
138 161 
138 162 
138 163 
138 173 
138 175 
138 176 
139 140 
139 141 
139 142 
139 148 
139 150 
139 154 
139 159 
139 162 
139 164 
139 168 
139 169 
139 172 
139 176 
140 141 
140 142 
140 146 
140 150 
140 155 
140 157 
140 158 
140 163 
140 165 
140 166 
140 169 
140 171 
141 142 
141 156 
141 160 
141 162 
141 166 
141 169 
141 170 
141 171 
141 176 
142 146 
142 149 
142 151 
142 154 
142 160 
142 167 
142 170 
142 171 
142 173 
142 174 
142 175 
143 144 
143 145 
143 146 
143 147 
143 148 
143 149 
143 150 
143 151 
143 152 
143 153 
143 154 
143 155 
144 145 
144 146 
144 147 
144 156 
144 157 
144 158 
144 159 
144 160 
144 165 
144 168 
144 174 
144 175 
145 146 
145 147 
145 149 
145 151 
145 157 
145 161 
145 163 
145 164 
145 165 
145 166 
145 167 
145 168 
145 170 
146 147 
146 149 
146 154 
146 155 
146 157 
146 166 
146 169 
146 170 
146 171 
146 173 
146 174 
147 152 
147 153 
147 155 
147 159 
147 161 
147 167 
147 172 
147 173 
148 149 
148 150 
148 151 
148 152 
148 153 
148 156 
148 159 
148 161 
148 162 
148 163 
148 172 
148 176 
149 150 
149 151 
149 152 
149 154 
149 161 
149 164 
149 165 
149 166 
149 167 
149 170 
149 171 
149 173 
149 174 
150 151 
150 152 
150 154 
150 158 
150 162 
150 163 
150 164 
150 165 
150 168 
150 169 
150 171 
151 152 
151 157 
151 160 
151 163 
151 167 
151 168 
151 170 
151 175 
152 153 
152 158 
152 159 
152 164 
152 167 
152 172 
152 174 
153 154 
153 155 
153 156 
153 159 
153 161 
153 162 
153 163 
153 167 
154 155 
154 162 
154 164 
154 168 
154 169 
154 170 
154 171 
154 173 
154 174 
155 157 
155 161 
155 166 
155 169 
155 172 
155 173 
156 157 
156 158 
156 159 
156 160 
156 161 
156 162 
156 163 
156 169 
156 171 
156 176 
157 158 
157 159 
157 160 
157 163 
157 166 
157 168 
157 169 
157 170 
158 159 
158 160 
158 163 
158 164 
158 165 
158 171 
158 172 
158 174 
159 160 
159 167 
159 172 
159 176 
160 162 
160 166 
160 167 
160 170 
160 175 
161 162 
161 163 
161 164 
161 165 
161 166 
161 167 
161 172 
161 173 
162 163 
162 164 
162 166 
162 168 
162 169 
162 170 
163 165 
163 168 
163 170 
163 171 
164 165 
164 166 
164 167 
164 168 
164 169 
164 172 
164 174 
165 166 
165 167 
165 168 
165 171 
165 174 
165 175 
166 167 
166 169 
166 170 
167 175 
168 169 
168 170 
168 174 
168 175 
169 171 
169 176 
170 171 
170 173 
170 174 
171 173 
171 174 
171 176 
172 173 
172 174 
172 176 
173 174 
173 175 
173 176 
174 175 
175 176 
